p vc 24 42
1 2
1 3
1 4
1 5
1 6
1 7
1 8
1 9
1 10
1 11
1 12
3 2
3 13
3 14
3 15
3 16
3 17
3 18
19 20
19 21
19 22
19 23
19 24
19 25
19 26
19 27
21 28
21 29
21 6
12 25
13 17
17 2
23 24
24 5
8 4
18 15
4 16
4 9
7 9
7 10
16 9
9 11
